<instance format="XCSP3" type="CSP">
  <variables>
    <var id="w1"> 1 </var>
    <array id="x" size="[390]"> 0 1 </array>
  </variables>
  <constraints>
    <group>
      <extension>
        <list> %0 %1 </list>
        <supports> (0,1)(1,0) </supports>
      </extension>
      <args> x[172] x[169] </args>
      <args> x[145] x[109] </args>
      <args> x[144] x[34] </args>
      <args> x[146] x[33] </args>
      <args> x[223] x[222] </args>
      <args> x[112] x[35] </args>
      <args> x[147] x[36] </args>
      <args> x[136] x[134] </args>
      <args> x[227] x[192] </args>
      <args> x[228] x[195] </args>
      <args> x[161] x[46] </args>
      <args> x[137] x[79] </args>
      <args> x[231] x[194] </args>
      <args> x[226] x[225] </args>
      <args> x[258] x[257] </args>
      <args> x[288] x[262] </args>
      <args> x[287] x[268] </args>
      <args> x[363] x[267] </args>
      <args> x[266] x[265] </args>
      <args> x[241] x[162] </args>
      <args> x[219] x[153] </args>
      <args> x[328] x[327] </args>
      <args> x[298] x[247] </args>
      <args> x[364] x[217] </args>
      <args> x[313] x[303] </args>
      <args> x[330] x[329] </args>
      <args> x[359] x[356] </args>
      <args> x[290] x[289] </args>
      <args> x[353] x[299] </args>
      <args> x[204] x[199] </args>
      <args> x[203] x[198] </args>
      <args> x[233] x[230] </args>
      <args> x[7] x[0] </args>
      <args> x[218] x[93] </args>
      <args> x[85] x[49] </args>
      <args> x[110] x[108] </args>
      <args> x[111] x[80] </args>
      <args> x[97] x[94] </args>
      <args> x[143] x[45] </args>
      <args> x[44] x[38] </args>
      <args> x[291] x[86] </args>
      <args> x[187] x[41] </args>
      <args> x[10] x[6] </args>
      <args> x[17] x[12] </args>
      <args> x[48] x[47] </args>
      <args> x[130] x[127] </args>
      <args> x[177] x[124] </args>
      <args> x[254] x[224] </args>
      <args> x[179] x[173] </args>
      <args> x[251] x[149] </args>
      <args> x[292] x[238] </args>
      <args> x[348] x[338] </args>
      <args> x[324] x[318] </args>
      <args> x[325] x[321] </args>
      <args> x[335] x[332] </args>
      <args> x[221] x[220] </args>
      <args> x[256] x[248] </args>
      <args> x[189] x[188] </args>
      <args> x[186] x[185] </args>
      <args> x[331] x[74] </args>
      <args> x[107] x[104] </args>
      <args> x[66] x[31] </args>
      <args> x[64] x[63] </args>
      <args> x[26] x[21] </args>
      <args> x[56] x[28] </args>
      <args> x[58] x[30] </args>
      <args> x[57] x[29] </args>
      <args> x[295] x[293] </args>
    </group>
    <group>
      <extension>
        <list> %0 %1 %2 </list>
        <supports> (0,0,1)(0,1,0)(1,0,0)(1,1,1) </supports>
      </extension>
      <args> x[170..171] x[168] </args>
      <args> x[9] x[8] x[2] </args>
      <args> x[250] x[191] x[72] </args>
      <args> x[255] x[249] x[113] </args>
      <args> x[336] x[334] x[333] </args>
      <args> x[78] x[77] x[76] </args>
      <args> x[51..52] x[18] </args>
    </group>
    <group>
      <extension>
        <list> %0 %1 %2 %3 </list>
        <conflicts> (0,0,0,0) </conflicts>
      </extension>
      <args> x[193] x[229] x[195] x[192] </args>
      <args> x[196] x[205] x[207..208] </args>
      <args> x[4] x[89] x[91..92] </args>
      <args> x[3] x[82] x[80] x[84] </args>
      <args> x[15] x[100] x[102..103] </args>
      <args> x[13] x[95] x[94] x[96] </args>
      <args> x[39] x[81] x[362] x[83] </args>
      <args> x[11] x[14] x[12] x[16] </args>
      <args> x[123] x[125] x[178] x[126] </args>
      <args> x[119] x[121] x[135] x[122] </args>
      <args> x[148] x[151] x[149] x[190] </args>
      <args> x[150] x[174] x[180] x[175] </args>
      <args> x[116] x[120] x[206] x[117] </args>
      <args> x[337] x[340] x[332] x[253] </args>
      <args> x[337] x[341] x[332] x[253] </args>
      <args> x[337] x[340] x[342] x[253] </args>
      <args> x[337] x[341..342] x[253] </args>
      <args> x[337] x[345] x[350] x[339] </args>
      <args> x[20] x[105] x[104] x[106] </args>
      <args> x[55] x[87] x[90] x[88] </args>
      <args> x[19] x[98] x[101] x[99] </args>
    </group>
    <group>
      <extension>
        <list> %0 %1 %2 </list>
        <conflicts> (1,1,1) </conflicts>
      </extension>
      <args> x[297] x[293..294] </args>
      <args> x[297] x[296] x[294] </args>
      <args> x[245] x[243] x[242] </args>
      <args> x[246] x[243] x[242] </args>
      <args> x[245] x[244] x[242] </args>
      <args> x[246] x[244] x[242] </args>
      <args> x[127] x[133] x[132] </args>
      <args> x[129] x[131] x[128] </args>
      <args> x[71] x[70] x[69] </args>
      <args> x[257] x[260] x[259] </args>
      <args> x[269] x[271] x[261] </args>
      <args> x[270] x[274] x[261] </args>
      <args> x[260] x[263..264] </args>
      <args> x[210] x[176] x[200] </args>
      <args> x[210] x[209] x[200] </args>
      <args> x[214] x[211] x[202] </args>
      <args> x[214..216] </args>
      <args> x[211..213] </args>
      <args> x[160] x[155] x[159] </args>
      <args> x[160] x[165] x[163] </args>
      <args> x[155] x[157..158] </args>
      <args> x[139] x[140] x[138] </args>
      <args> x[142] x[141] x[138] </args>
      <args> x[280] x[278] x[277] </args>
      <args> x[281] x[278] x[277] </args>
      <args> x[280] x[279] x[277] </args>
      <args> x[281] x[279] x[277] </args>
      <args> x[305] x[304] x[300] </args>
      <args> x[307] x[306] x[300] </args>
      <args> x[366] x[365] x[358] </args>
      <args> x[366] x[323] x[358] </args>
      <args> x[357] x[354..355] </args>
      <args> x[357] x[356] x[355] </args>
      <args> x[359..361] </args>
      <args> x[301] x[299] x[302] </args>
      <args> x[37] x[41] x[40] </args>
      <args> x[37] x[252] x[43] </args>
      <args> x[42] x[181..182] </args>
      <args> x[27] x[25] x[24] </args>
      <args> x[23] x[21] x[22] </args>
      <args> x[273] x[272] x[118] </args>
      <args> x[276] x[275] x[118] </args>
      <args> x[316] x[314] x[184] </args>
      <args> x[316] x[315] x[184] </args>
      <args> x[240] x[239] x[183] </args>
      <args> x[240] x[237] x[183] </args>
      <args> x[342] x[332] x[253] </args>
      <args> x[341] x[340] x[253] </args>
      <args> x[285] x[283] x[282] </args>
      <args> x[286] x[283] x[282] </args>
      <args> x[285] x[284] x[282] </args>
      <args> x[286] x[284] x[282] </args>
      <args> x[310] x[309] x[308] </args>
      <args> x[312] x[311] x[308] </args>
      <args> x[317] x[320] x[341] </args>
      <args> x[317..319] </args>
      <args> x[320] x[326] x[322] </args>
      <args> x[344] x[343] x[340] </args>
      <args> x[344] x[347] x[346] </args>
      <args> x[343] x[349] x[351] </args>
      <args> x[164] x[152] x[73] </args>
      <args> x[164] x[166..167] </args>
      <args> x[152] x[156] x[154] </args>
      <args> x[236] x[234] x[75] </args>
      <args> x[236] x[235] x[75] </args>
      <args> x[62] x[61] x[53] </args>
      <args> x[62..63] x[65] </args>
      <args> x[61] x[67..68] </args>
      <args> x[32] x[59..60] </args>
    </group>
    <extension>
      <list> w1 x[387] </list>
      <supports> (1,1) </supports>
    </extension>
    <group>
      <extension>
        <list> %0 %1 %2 </list>
        <conflicts> (1,0,0) </conflicts>
      </extension>
      <args> x[387] x[389] x[388] </args>
      <args> x[197] x[374] x[373] </args>
      <args> x[201] x[376] x[375] </args>
      <args> x[232] x[372] x[371] </args>
      <args> x[352] x[368] x[367] </args>
      <args> x[1] x[384] x[383] </args>
      <args> x[5] x[386] x[385] </args>
      <args> x[115] x[370] x[369] </args>
      <args> x[114] x[378] x[377] </args>
      <args> x[50] x[382] x[381] </args>
      <args> x[54] x[380] x[379] </args>
    </group>
  </constraints>
</instance>
